var 1..5:  X_INTRODUCED_0_;
var 1..5:  X_INTRODUCED_1_;
var 1..5:  X_INTRODUCED_2_;
var 1..5:  X_INTRODUCED_3_;
array [1..4] of var int: _383:: output_array([1..5])=[X_INTRODUCED_0_,X_INTRODUCED_1_,X_INTRODUCED_2_,X_INTRODUCED_3_];
var bool: X_INTRODUCED_4_ ::var_is_introduced :: is_defined_var;
var 0..1: X_INTRODUCED_5_ ::var_is_introduced :: is_defined_var;
var bool: X_INTRODUCED_6_ ::var_is_introduced :: is_defined_var;
var 0..1: X_INTRODUCED_7_ ::var_is_introduced :: is_defined_var;
var bool: X_INTRODUCED_8_ ::var_is_introduced :: is_defined_var;
var 0..1: X_INTRODUCED_9_ ::var_is_introduced :: is_defined_var;
var bool: X_INTRODUCED_10_ ::var_is_introduced :: is_defined_var;
var 0..1: X_INTRODUCED_11_ ::var_is_introduced :: is_defined_var;
array [1..4] of int: X_INTRODUCED_13_ = [-1,-1,-1,-1];
constraint int_eq_reif(X_INTRODUCED_0_,4,X_INTRODUCED_4_):: defines_var(X_INTRODUCED_4_);
constraint int_eq_reif(X_INTRODUCED_1_,4,X_INTRODUCED_6_):: defines_var(X_INTRODUCED_6_);
constraint int_eq_reif(X_INTRODUCED_2_,4,X_INTRODUCED_8_):: defines_var(X_INTRODUCED_8_);
constraint int_eq_reif(X_INTRODUCED_3_,4,X_INTRODUCED_10_):: defines_var(X_INTRODUCED_10_);
constraint bool2int(X_INTRODUCED_4_,X_INTRODUCED_5_):: defines_var(X_INTRODUCED_5_);
constraint bool2int(X_INTRODUCED_6_,X_INTRODUCED_7_):: defines_var(X_INTRODUCED_7_);
constraint bool2int(X_INTRODUCED_8_,X_INTRODUCED_9_):: defines_var(X_INTRODUCED_9_);
constraint bool2int(X_INTRODUCED_10_,X_INTRODUCED_11_):: defines_var(X_INTRODUCED_11_);
constraint int_lin_eq(X_INTRODUCED_13_,[X_INTRODUCED_5_,X_INTRODUCED_7_,X_INTRODUCED_9_,X_INTRODUCED_11_],-3);
solve satisfy;
